db/data/23946119751180416407234522868743677949.z3.out
sat
-------------------
858.144473524
